50
    1    18    50
    2     1    26
    3    18    26
    4    44    29
    5    46    14
    6    15    18
    7    16     1
    8     2    30
    9    47    43
   10     3    16
   11    21    22
   12    49    47
   13     9    10
   14    20    32
   15    31    33
   16    44    19
   17    32    43
   18    24    12
   19    23     1
   20     8    24
   21    50     7
   22    11    20
   23    42    46
   24    38    25
   25     1     1
   26    43    42
   27    12     8
   28     8    38
   29    48    38
   30    37    25
   31    33    50
   32    38     6
   33     2    16
   34    19    25
   35    38     4
   36    21    41
   37    21    22
   38    35    31
   39    11    44
   40    12    39
   41    14    27
   42    44    38
   43    36     6
   44    47    40
   45    37     3
   46    23     9
   47    25     2
   48    19    40
   49    25    19
   50    14    12
406
